1 -1 2 0
1 2 3 0
1 -2 -4 0
1 2 -1 0
1 -5 -6 0
1 -5 7 0
1 -4 8 0
1 4 2 0
1 4 -9 0
1 4 -10 0
1 4 -11 0
1 -3 -12 0
1 3 13 0
1 3 -14 0
1 3 -10 0
1 3 -1 0
1 7 13 0
1 15 16 0
1 17 -18 0
1 17 4 0
1 -11 19 0
1 -11 -20 0
1 11 -6 0
1 11 -21 0
1 11 -22 0
1 -19 12 0
1 -19 23 0
1 16 24 0
1 16 14 0
1 16 25 0
1 -18 26 0
1 27 -19 0
1 -27 -28 0
1 -27 6 0
1 -27 -10 0
1 -27 11 0
1 27 25 0
1 -29 20 0
1 24 18 0
1 -30 26 0
1 -30 -31 0
1 -26 32 0
1 -33 26 0
1 20 -30 0
1 -20 -33 0
1 23 26 0
1 23 19 0
1 -23 25 0
1 -34 -35 0
1 34 23 0
1 36 -37 0
1 36 -38 0
1 -36 7 0
1 -13 36 0
1 -21 39 0
1 21 -40 0
1 -21 3 0
1 21 -11 0
1 21 -41 0
1 12 -40 0
1 12 21 0
1 12 41 0
1 -37 42 0
1 -42 -13 0
1 -42 -10 0
1 -42 -36 0
1 -39 -12 0
1 -39 38 0
1 38 21 0
1 -10 37 0
1 8 -37 0
1 8 42 0
1 -8 -41 0
1 31 27 0
1 31 -37 0
1 -32 43 0
1 32 40 0
1 -32 9 0
1 -44 32 0
1 -44 -31 0
1 -44 10 0
1 41 -31 0
1 28 -6 0
1 28 16 0
1 28 45 0
1 25 23 0
1 35 40 0
1 35 46 0
1 -47 34 0
1 9 28 0
1 -43 47 0
1 43 25 0
1 48 -3 0
1 -48 28 0
